jobs  (incl. supersource/sink ):	52
RESOURCES
- renewable                 : 4 R
- nonrenewable              : 2 N
- doubly constrained        : 0 D
************************************************************************
PRECEDENCE RELATIONS:
jobnr.    #modes  #successors   successors
1	1	14		2 3 4 5 6 7 8 9 11 13 15 16 17 23 
2	6	8		47 40 26 24 22 20 14 10 
3	6	8		49 48 37 31 27 25 14 12 
4	6	14		50 49 48 46 43 40 32 31 30 28 26 25 21 19 
5	6	9		49 46 44 41 39 37 30 25 12 
6	6	11		46 44 43 40 39 37 32 31 29 27 21 
7	6	9		51 49 47 40 31 28 22 20 19 
8	6	9		50 46 45 40 34 31 29 28 19 
9	6	8		50 49 45 42 39 37 35 18 
10	6	7		50 46 44 31 29 25 19 
11	6	11		47 45 43 41 40 39 38 37 36 35 30 
12	6	9		45 42 40 38 35 34 29 28 26 
13	6	9		43 41 40 38 37 35 34 29 28 
14	6	5		44 43 39 30 21 
15	6	4		40 29 28 22 
16	6	8		46 44 43 41 38 35 34 28 
17	6	7		43 41 39 37 35 34 27 
18	6	6		46 43 40 36 34 30 
19	6	6		42 39 38 37 35 33 
20	6	6		44 41 36 35 34 33 
21	6	5		45 41 38 35 34 
22	6	5		44 37 35 34 33 
23	6	4		39 37 34 28 
24	6	3		48 35 28 
25	6	3		36 34 33 
26	6	2		36 33 
27	6	2		42 33 
28	6	1		33 
29	6	1		36 
30	6	1		33 
31	6	1		35 
32	6	1		34 
33	6	1		52 
34	6	1		52 
35	6	1		52 
36	6	1		52 
37	6	1		52 
38	6	1		52 
39	6	1		52 
40	6	1		52 
41	6	1		52 
42	6	1		52 
43	6	1		52 
44	6	1		52 
45	6	1		52 
46	6	1		52 
47	6	1		52 
48	6	1		52 
49	6	1		52 
50	6	1		52 
51	6	1		52 
52	1	0		
************************************************************************
REQUESTS/DURATIONS
jobnr.	mode	dur	R1	R2	R3	R4	N1	N2	
------------------------------------------------------------------------
1	1	0	0	0	0	0	0	0	
2	1	2	3	4	5	5	10	28	
	2	5	3	4	3	4	9	23	
	3	16	3	4	3	3	9	21	
	4	21	2	3	2	3	8	17	
	5	25	1	3	2	2	8	13	
	6	29	1	3	1	2	8	10	
3	1	12	2	4	3	5	28	24	
	2	24	2	4	2	3	27	22	
	3	25	2	4	2	3	27	18	
	4	27	2	4	2	3	26	18	
	5	28	2	3	2	2	25	12	
	6	29	2	3	2	1	25	10	
4	1	2	2	3	2	3	7	25	
	2	11	2	2	1	3	6	25	
	3	14	2	2	1	3	6	22	
	4	22	2	2	1	3	6	21	
	5	26	2	2	1	3	6	18	
	6	27	2	2	1	3	6	17	
5	1	7	3	1	1	4	22	8	
	2	9	2	1	1	4	21	8	
	3	10	2	1	1	4	20	6	
	4	17	2	1	1	4	20	5	
	5	24	2	1	1	4	18	4	
	6	30	2	1	1	4	18	3	
6	1	1	4	4	4	4	19	30	
	2	3	4	3	3	4	19	29	
	3	6	4	3	2	4	18	29	
	4	11	4	2	2	4	15	29	
	5	25	4	1	1	4	14	28	
	6	28	4	1	1	4	13	28	
7	1	11	2	5	4	3	25	8	
	2	15	1	4	3	3	19	7	
	3	17	1	4	3	3	18	7	
	4	18	1	4	3	3	16	7	
	5	20	1	4	2	3	11	7	
	6	25	1	4	2	3	8	7	
8	1	6	3	3	2	4	7	19	
	2	20	3	3	2	3	6	16	
	3	21	3	3	2	2	5	14	
	4	22	3	3	2	2	5	12	
	5	27	3	3	2	1	3	11	
	6	29	3	3	2	1	3	9	
9	1	8	3	2	4	3	23	17	
	2	9	2	2	4	3	20	16	
	3	14	2	2	4	3	16	11	
	4	16	2	2	3	3	13	10	
	5	17	1	2	2	2	9	6	
	6	19	1	2	2	2	8	4	
10	1	5	2	3	4	4	22	13	
	2	6	2	2	3	3	21	11	
	3	9	2	2	2	3	16	10	
	4	18	2	2	2	2	11	9	
	5	19	2	1	2	2	7	9	
	6	20	2	1	1	2	5	7	
11	1	2	4	3	4	4	27	20	
	2	3	4	3	3	4	25	20	
	3	12	3	3	3	4	25	18	
	4	19	2	3	3	4	24	16	
	5	24	2	3	2	4	24	15	
	6	30	1	3	2	4	23	12	
12	1	6	4	5	2	4	22	9	
	2	8	4	4	2	4	21	8	
	3	12	4	4	2	4	20	6	
	4	26	4	4	2	4	20	5	
	5	27	4	4	2	4	19	5	
	6	28	4	4	2	4	19	3	
13	1	1	4	5	3	5	17	24	
	2	2	4	4	2	4	14	23	
	3	3	4	4	2	3	14	23	
	4	4	3	4	1	3	11	23	
	5	12	3	3	1	3	7	22	
	6	30	2	3	1	2	5	22	
14	1	6	2	3	5	1	26	29	
	2	11	2	3	4	1	23	24	
	3	14	2	3	4	1	21	23	
	4	15	1	3	4	1	21	21	
	5	17	1	2	4	1	18	18	
	6	22	1	2	4	1	17	14	
15	1	1	2	4	2	5	5	10	
	2	18	2	3	2	4	4	10	
	3	23	2	3	2	4	4	9	
	4	27	2	3	2	4	4	8	
	5	29	1	2	2	3	3	9	
	6	30	1	2	2	3	3	8	
16	1	10	5	3	2	3	14	25	
	2	17	4	3	1	3	13	21	
	3	20	3	3	1	3	12	21	
	4	24	3	3	1	3	10	18	
	5	25	3	3	1	2	7	16	
	6	28	2	3	1	2	6	15	
17	1	5	1	5	3	3	6	21	
	2	7	1	4	2	3	5	19	
	3	16	1	4	2	3	5	16	
	4	18	1	4	2	3	4	12	
	5	19	1	4	1	3	4	9	
	6	23	1	4	1	3	3	7	
18	1	1	4	5	4	5	21	17	
	2	7	3	5	4	4	19	15	
	3	14	3	5	3	3	14	11	
	4	24	2	5	3	3	10	11	
	5	29	2	5	2	1	5	7	
	6	30	2	5	2	1	3	5	
19	1	5	3	2	3	5	22	28	
	2	16	3	2	3	4	17	27	
	3	17	2	2	3	3	13	24	
	4	21	2	2	2	3	11	21	
	5	22	2	2	1	2	8	19	
	6	28	1	2	1	2	6	17	
20	1	3	3	4	4	5	25	28	
	2	14	3	3	4	3	22	26	
	3	20	2	3	4	3	21	25	
	4	21	2	2	4	2	17	24	
	5	27	2	2	4	2	16	24	
	6	28	1	1	4	1	11	22	
21	1	8	5	1	4	3	26	27	
	2	22	5	1	4	3	26	26	
	3	23	5	1	4	3	25	26	
	4	24	5	1	4	3	24	26	
	5	25	5	1	4	3	23	25	
	6	30	5	1	4	3	23	24	
22	1	8	3	4	3	4	17	27	
	2	9	2	3	3	4	15	23	
	3	13	2	3	3	4	14	23	
	4	21	2	2	2	4	14	20	
	5	22	2	2	2	4	13	15	
	6	30	2	1	2	4	12	13	
23	1	4	2	5	2	5	11	18	
	2	7	2	4	2	5	10	18	
	3	8	2	4	2	5	10	16	
	4	26	2	4	1	5	10	15	
	5	27	2	3	1	5	9	14	
	6	29	2	3	1	5	9	13	
24	1	1	5	3	5	5	9	25	
	2	3	5	3	5	4	8	24	
	3	5	5	3	5	4	7	23	
	4	6	5	3	5	4	6	22	
	5	13	5	3	5	3	6	21	
	6	16	5	3	5	3	5	21	
25	1	9	1	3	5	2	27	27	
	2	12	1	3	4	2	24	22	
	3	14	1	2	4	2	20	20	
	4	21	1	2	3	2	13	16	
	5	27	1	2	3	2	11	12	
	6	29	1	1	2	2	8	9	
26	1	6	5	5	4	4	12	28	
	2	8	4	4	4	3	11	27	
	3	12	4	3	4	3	11	26	
	4	18	3	2	4	3	11	26	
	5	27	3	2	3	3	10	26	
	6	30	3	1	3	3	10	25	
27	1	1	3	5	3	3	8	26	
	2	2	3	5	3	2	8	24	
	3	3	3	5	3	2	8	18	
	4	5	3	5	2	1	8	16	
	5	9	3	5	2	1	8	11	
	6	10	3	5	2	1	8	8	
28	1	3	4	1	5	3	25	27	
	2	6	3	1	4	3	23	25	
	3	14	3	1	4	3	22	25	
	4	22	3	1	4	3	19	23	
	5	26	3	1	3	3	13	22	
	6	28	3	1	3	3	12	22	
29	1	3	5	4	4	1	26	25	
	2	7	5	4	4	1	25	24	
	3	16	5	4	3	1	21	24	
	4	17	5	3	3	1	20	23	
	5	18	5	3	3	1	18	22	
	6	19	5	2	2	1	15	22	
30	1	5	5	1	5	5	12	20	
	2	9	4	1	5	4	12	19	
	3	16	4	1	5	4	12	18	
	4	17	3	1	5	4	12	18	
	5	25	2	1	5	4	12	18	
	6	30	2	1	5	4	12	17	
31	1	5	3	4	3	1	29	15	
	2	10	3	3	2	1	29	12	
	3	15	3	2	2	1	29	9	
	4	17	2	2	2	1	29	7	
	5	20	2	1	2	1	29	7	
	6	28	1	1	2	1	29	5	
32	1	1	2	2	2	5	6	24	
	2	3	2	1	2	4	5	23	
	3	14	2	1	2	4	4	23	
	4	23	2	1	1	3	3	22	
	5	28	2	1	1	2	2	22	
	6	29	2	1	1	2	2	21	
33	1	7	4	2	4	3	14	30	
	2	8	3	2	3	2	12	26	
	3	10	2	2	3	2	10	22	
	4	22	2	2	2	1	10	20	
	5	23	2	1	2	1	9	19	
	6	27	1	1	1	1	6	15	
34	1	2	3	2	3	2	23	8	
	2	4	3	2	3	2	22	8	
	3	12	3	2	2	2	22	8	
	4	18	3	1	2	2	21	8	
	5	25	3	1	1	1	21	9	
	6	26	3	1	1	1	21	8	
35	1	1	5	5	5	3	28	28	
	2	2	4	4	4	3	26	26	
	3	14	4	3	3	3	26	25	
	4	20	4	3	2	3	25	25	
	5	24	3	3	2	3	23	23	
	6	30	3	2	1	3	23	22	
36	1	12	3	2	3	4	19	13	
	2	18	2	2	3	4	18	10	
	3	20	2	2	3	4	17	8	
	4	23	2	2	3	4	15	7	
	5	25	2	2	2	3	14	4	
	6	29	2	2	2	3	14	3	
37	1	1	1	3	4	3	16	19	
	2	8	1	2	4	2	14	17	
	3	9	1	2	4	2	13	15	
	4	20	1	1	3	2	12	13	
	5	21	1	1	3	2	9	8	
	6	24	1	1	3	2	9	6	
38	1	1	1	3	3	2	28	20	
	2	12	1	3	3	2	28	17	
	3	14	1	3	3	2	27	13	
	4	19	1	3	3	2	25	10	
	5	20	1	2	2	1	25	6	
	6	22	1	2	2	1	24	5	
39	1	5	5	4	5	1	13	26	
	2	10	5	4	5	1	12	23	
	3	13	5	3	5	1	12	21	
	4	22	5	3	5	1	12	15	
	5	23	5	2	5	1	12	12	
	6	24	5	2	5	1	12	9	
40	1	1	4	5	4	5	19	4	
	2	3	4	4	3	4	15	4	
	3	4	4	3	3	4	15	3	
	4	11	4	3	3	4	9	3	
	5	15	4	3	3	4	6	2	
	6	24	4	2	3	4	2	1	
41	1	1	2	4	3	1	24	16	
	2	3	2	4	3	1	20	13	
	3	13	2	4	3	1	18	12	
	4	16	2	4	3	1	11	9	
	5	19	2	4	3	1	6	9	
	6	25	2	4	3	1	4	7	
42	1	1	5	3	3	5	14	14	
	2	4	4	3	3	4	14	13	
	3	14	3	3	3	4	12	11	
	4	20	3	3	3	4	11	10	
	5	21	2	2	3	4	9	9	
	6	30	1	2	3	4	8	9	
43	1	7	2	4	4	4	23	23	
	2	10	2	3	3	4	18	22	
	3	19	2	3	2	4	17	20	
	4	20	2	2	2	4	14	18	
	5	22	2	2	2	4	10	16	
	6	27	2	2	1	4	9	15	
44	1	4	4	3	4	3	25	13	
	2	8	4	3	3	3	25	12	
	3	13	3	3	3	3	23	8	
	4	18	3	3	2	2	22	8	
	5	20	3	2	2	2	22	6	
	6	23	2	2	1	1	21	1	
45	1	10	4	4	3	4	19	18	
	2	11	3	3	2	4	15	18	
	3	14	3	3	2	3	11	18	
	4	15	3	3	2	3	9	17	
	5	24	2	3	2	3	6	17	
	6	29	2	3	2	2	3	17	
46	1	1	3	5	3	4	30	27	
	2	2	3	4	3	3	26	23	
	3	14	3	3	3	3	26	19	
	4	15	2	2	3	3	25	17	
	5	17	2	1	3	3	22	11	
	6	28	2	1	3	3	21	11	
47	1	4	4	2	4	1	22	22	
	2	7	3	2	4	1	16	20	
	3	11	3	2	3	1	12	16	
	4	21	2	2	3	1	12	14	
	5	27	1	2	2	1	7	14	
	6	28	1	2	2	1	4	10	
48	1	6	5	4	5	5	11	27	
	2	8	5	4	4	4	11	21	
	3	20	5	3	4	4	11	17	
	4	21	5	3	4	4	11	13	
	5	25	5	2	4	4	10	8	
	6	29	5	1	4	4	10	7	
49	1	5	5	3	5	4	22	14	
	2	10	4	3	4	3	20	12	
	3	17	3	3	4	3	13	10	
	4	20	3	3	4	3	11	7	
	5	25	3	3	4	2	7	6	
	6	26	2	3	4	2	5	5	
50	1	1	4	2	2	5	18	17	
	2	7	3	2	2	5	16	17	
	3	8	3	2	2	5	14	16	
	4	14	2	1	2	5	12	16	
	5	16	2	1	2	5	12	15	
	6	19	1	1	2	5	10	15	
51	1	7	2	2	4	4	19	26	
	2	12	2	2	4	4	18	26	
	3	13	2	2	3	4	18	23	
	4	18	2	2	3	3	17	23	
	5	21	1	1	2	3	17	21	
	6	28	1	1	1	2	17	19	
52	1	0	0	0	0	0	0	0	
************************************************************************

 RESOURCE AVAILABILITIES 
	R 1	R 2	R 3	R 4	N 1	N 2
	24	28	25	30	654	716

************************************************************************
